(set-info :smt-lib-version 2.6)
(set-logic QF_S)
(set-info :source |
Generated by: Joel Day, Thorsten Ehlers, Mitja Kulczynski, Federico Mora, Florin Manea, Dirk Nowotka, Danny Poulsen, Zhengyang Lu
Application: Test WOORPJE
Target solver: WOORPJE
Publications: Day, J. D., Ehlers, T., Kulczynski, M., Manea, F., Nowotka, D., & Poulsen, D. B. (2019). On solving word equations using SAT. In RP 2019
Description: Transoformed and expanded from Track02
|)
(set-info :license "https://creativecommons.org/licenses/by/4.0/")
(set-info :category "random")
(set-info :status unknown)

(declare-fun S () String)
(declare-fun N () String)
(declare-fun J () String)
(declare-fun X () String)
(declare-fun H () String)
(declare-fun K () String)
(declare-fun R () String)
(declare-fun L () String)
(declare-fun O () String)
(assert (= (str.++  "aaaaaaa" J "aaaaaaaaaa" J "aab" K "aa" K "a" K K K "b" O S "ab" S S "b")  (str.++  "a" H H "aaaa" K K N N L K K N N L "b" S "a" R S "a" R "b" S "a" S "ab" X X "baa") ))
(check-sat)

(exit)
